seed= 2052018 ;
N= 630 ;
M= 3 ;
F= 3 ;
K= 8 ;
T= 180 ;

p=[ 10 10 10 10 10 10 10 10 10 10 10 10 10 10 10 10 10 10 10 10 10 10 10 10 10 10 10 10 10 10 10 10 10 10 10 10 10 10 10 10 10 10 10 10 10 10 10 10 10 10 10 10 10 10 10 10 10 10 10 10 10 10 10 10 10 10 10 10 10 10 10 10 10 10 10 10 10 10 10 10 10 10 10 10 10 10 10 10 10 10 10 10 10 10 10 10 10 10 10 10 10 10 10 10 10 10 10 10 10 10 10 10 10 10 10 10 10 10 10 10 10 10 10 10 10 10 10 10 10 10 10 10 10 10 10 10 10 10 10 10 10 10 10 10 10 10 10 10 10 10 10 10 10 10 10 10 10 10 10 10 10 10 10 10 10 10 10 10 10 10 10 10 10 10 10 10 10 10 10 10 10 10 10 10 10 10 10 10 10 10 10 10 10 10 10 10 10 10 10 10 10 10 10 10 10 10 10 10 10 10 4 4 4 4 4 4 4 4 4 4 4 4 4 4 4 4 4 4 4 4 4 4 4 4 4 4 4 4 4 4 4 4 4 4 4 4 4 4 4 4 4 4 4 4 4 4 4 4 4 4 4 4 4 4 4 4 4 4 4 4 4 4 4 4 4 4 4 4 4 4 4 4 4 4 4 4 4 4 4 4 4 4 4 4 4 4 4 4 4 4 4 4 4 4 4 4 4 4 4 4 4 4 4 4 4 4 4 4 4 4 4 4 4 4 4 4 4 4 4 4 4 4 4 4 4 4 4 4 4 4 4 4 4 4 4 4 4 4 4 4 4 4 4 4 4 4 4 4 4 4 4 4 4 4 4 4 4 4 4 4 4 4 4 4 4 4 4 4 4 4 4 4 4 4 4 4 4 4 4 4 4 4 4 4 4 4 4 4 4 4 4 4 4 4 4 4 4 4 4 4 4 4 4 4 4 4 4 4 4 4 2 2 2 2 2 2 2 2 2 2 2 2 2 2 2 2 2 2 2 2 2 2 2 2 2 2 2 2 2 2 2 2 2 2 2 2 2 2 2 2 2 2 2 2 2 2 2 2 2 2 2 2 2 2 2 2 2 2 2 2 2 2 2 2 2 2 2 2 2 2 2 2 2 2 2 2 2 2 2 2 2 2 2 2 2 2 2 2 2 2 2 2 2 2 2 2 2 2 2 2 2 2 2 2 2 2 2 2 2 2 2 2 2 2 2 2 2 2 2 2 2 2 2 2 2 2 2 2 2 2 2 2 2 2 2 2 2 2 2 2 2 2 2 2 2 2 2 2 2 2 2 2 2 2 2 2 2 2 2 2 2 2 2 2 2 2 2 2 2 2 2 2 2 2 2 2 2 2 2 2 2 2 2 2 2 2 2 2 2 2 2 2 2 2 2 2 2 2 2 2 2 2 2 2 2 2 2 2 2 2 ];
r=[ 0 0 0 0 0 0 0 0 0 0 0 0 0 0 0 0 0 0 0 0 0 0 0 0 0 0 0 0 0 0 0 0 0 0 0 0 0 0 0 0 0 0 0 0 0 0 0 0 0 0 0 0 0 0 0 0 0 0 0 0 0 0 0 0 0 0 0 0 0 0 0 0 0 0 0 0 0 0 0 0 0 0 0 0 0 0 0 0 0 0 0 0 0 0 0 0 0 0 0 0 0 0 0 0 0 0 0 0 0 0 0 0 0 0 0 0 0 0 0 0 0 0 0 0 0 0 0 0 0 0 0 0 0 0 0 0 0 0 0 0 0 0 0 0 0 0 0 0 0 0 0 0 0 0 0 0 0 0 0 0 0 0 0 0 0 0 0 0 0 0 0 0 0 0 0 0 0 0 0 0 0 0 0 0 0 0 0 0 0 0 0 0 0 0 0 0 0 0 0 0 0 0 0 0 0 0 0 0 0 0 0 0 0 0 0 0 0 0 0 0 0 0 0 0 0 0 0 0 0 0 0 0 0 0 0 0 0 0 0 0 0 0 0 0 0 0 0 0 0 0 0 0 0 0 0 0 0 0 0 0 0 0 0 0 0 0 0 0 0 0 0 0 0 0 0 0 0 0 0 0 0 0 0 0 0 0 0 0 0 0 0 0 0 0 0 0 0 0 0 0 0 0 0 0 0 0 0 0 0 0 0 0 0 0 0 0 0 0 0 0 0 0 0 0 0 0 0 0 0 0 0 0 0 0 0 0 0 0 0 0 0 0 0 0 0 0 0 0 0 0 0 0 0 0 0 0 0 0 0 0 0 0 0 0 0 0 0 0 0 0 0 0 0 0 0 0 0 0 0 0 0 0 0 0 0 0 0 0 0 0 0 0 0 0 0 0 0 0 0 0 0 0 0 0 0 0 0 0 0 0 0 0 0 0 0 0 0 0 0 0 0 0 0 0 0 0 0 0 0 0 0 0 0 0 0 0 0 0 0 0 0 0 0 0 0 0 0 0 0 0 0 0 0 0 0 0 0 0 0 0 0 0 0 0 0 0 0 0 0 0 0 0 0 0 0 0 0 0 0 0 0 0 0 0 0 0 0 0 0 0 0 0 0 0 0 0 0 0 0 0 0 0 0 0 0 0 0 0 0 0 0 0 0 0 0 0 0 0 0 0 0 0 0 0 0 0 0 0 0 0 0 0 0 0 0 0 0 0 0 0 0 0 0 0 0 0 0 0 0 0 0 0 0 0 0 0 0 0 0 0 0 0 0 0 0 0 0 0 0 0 0 0 0 0 0 0 0 0 0 0 0 0 0 0 0 0 0 0 0 0 0 0 0 0 0 0 0 0 0 0 0 0 0 0 0 0 0 0 0 0 0 0 0 0 0 0 0 0 0 0 0 0 0 0 0 0 0 0 0 0 ];
d=[ 180 106 181 48 62 90 180 196 34 120 166 129 185 124 94 173 84 52 107 65 93 42 115 180 185 144 150 147 144 86 53 35 138 66 132 89 146 55 52 70 111 128 90 53 11 7 133 101 116 94 96 192 204 48 45 104 159 182 89 42 56 171 155 198 116 200 69 65 47 189 101 35 156 138 184 149 77 162 104 49 94 170 163 165 141 2 187 86 2 69 180 135 44 82 200 165 189 179 63 23 29 61 139 187 194 192 173 206 88 111 128 43 120 124 192 207 67 6 43 187 186 146 132 174 8 125 82 157 210 19 23 148 131 99 71 190 30 110 128 147 182 144 61 55 94 148 79 105 194 155 52 95 143 133 41 111 112 92 84 174 195 25 81 130 46 0 132 56 110 20 192 96 2 78 1 110 57 172 43 21 116 67 52 146 50 120 163 54 172 14 164 140 143 3 84 152 171 62 143 83 29 15 38 189 170 56 16 182 36 175 192 163 132 46 123 52 56 102 132 16 79 82 182 202 47 131 102 53 137 195 0 93 23 74 147 1 54 22 16 20 8 151 51 59 169 48 186 145 126 20 183 106 70 139 95 74 204 67 44 81 131 191 96 87 170 18 190 4 129 203 109 84 84 144 209 66 106 189 29 117 114 79 12 127 183 165 124 178 183 50 105 8 57 44 30 14 12 184 16 196 123 120 78 125 9 81 130 49 167 2 78 27 8 10 23 187 149 67 77 100 134 101 6 84 101 30 46 46 195 96 141 79 151 64 32 114 106 93 45 156 81 2 183 72 61 104 102 173 154 98 174 115 197 98 154 145 168 144 188 46 177 29 139 200 151 127 177 15 204 86 197 122 137 168 139 165 134 69 21 172 78 101 161 85 99 209 121 17 23 178 131 185 121 140 18 208 114 177 199 74 203 126 38 160 210 84 5 205 59 132 23 9 21 57 110 7 42 103 165 107 203 125 43 117 114 135 72 17 102 9 155 105 207 121 21 6 168 152 62 191 35 87 93 192 159 82 190 167 177 9 70 94 198 116 108 74 110 192 97 119 107 210 29 18 180 73 167 20 14 190 181 24 126 77 51 60 84 8 135 204 157 167 180 110 124 80 8 7 49 205 90 70 192 91 2 198 161 163 149 126 56 155 198 121 87 105 154 186 121 100 154 66 195 174 130 107 20 84 51 149 31 143 59 152 74 153 207 173 53 35 136 137 88 75 131 26 128 105 15 118 11 127 5 87 8 121 52 8 149 121 197 154 83 46 23 4 27 191 193 138 105 103 76 63 123 56 177 157 93 16 185 156 203 207 107 68 83 174 5 60 64 48 141 191 134 32 54 184 188 159 155 45 134 201 74 116 164 128 56 141 105 45 129 186 166 171 69 7 160 3 119 100 29 4 117 63 147 206 85 182 54 1 148 150 179 46 141 94 15 34 ];
s=[ 1 1 1 1 1 1 1 1 1 1 1 1 1 1 1 1 1 1 1 1 1 1 1 1 1 1 1 1 1 1 1 1 1 1 1 1 1 1 1 1 1 1 1 1 1 1 1 1 1 1 1 1 1 1 1 1 1 1 1 1 1 1 1 1 1 1 1 1 1 1 1 1 1 1 1 1 1 1 1 1 1 1 1 1 1 1 1 1 1 1 1 1 1 1 1 1 1 1 1 1 1 1 1 1 1 1 1 1 1 1 1 1 1 1 1 1 1 1 1 1 1 1 1 1 1 1 1 1 1 1 1 1 1 1 1 1 1 1 1 1 1 1 1 1 1 1 1 1 1 1 1 1 1 1 1 1 1 1 1 1 1 1 1 1 1 1 1 1 1 1 1 1 1 1 1 1 1 1 1 1 1 1 1 1 1 1 1 1 1 1 1 1 1 1 1 1 1 1 1 1 1 1 1 1 1 1 1 1 1 1 1 1 1 1 1 1 1 1 1 1 1 1 1 1 1 1 1 1 1 1 1 1 1 1 1 1 1 1 1 1 1 1 1 1 1 1 1 1 1 1 1 1 1 1 1 1 1 1 1 1 1 1 1 1 1 1 1 1 1 1 1 1 1 1 1 1 1 1 1 1 1 1 1 1 1 1 1 1 1 1 1 1 1 1 1 1 1 1 1 1 1 1 1 1 1 1 1 1 1 1 1 1 1 1 1 1 1 1 1 1 1 1 1 1 1 1 1 1 1 1 1 1 1 1 1 1 1 1 1 1 1 1 1 1 1 1 1 1 1 1 1 1 1 1 1 1 1 1 1 1 1 1 1 1 1 1 1 1 1 1 1 1 1 1 1 1 1 1 1 1 1 1 1 1 1 1 1 1 1 1 1 1 1 1 1 1 1 1 1 1 1 1 1 1 1 1 1 1 1 1 1 1 1 1 1 1 1 1 1 1 1 1 1 1 1 1 1 1 1 1 1 1 1 1 1 1 1 1 1 1 1 1 1 1 1 1 1 1 1 1 1 1 1 1 1 1 1 1 1 1 1 1 1 1 1 1 1 1 1 1 1 1 1 1 1 1 1 1 1 1 1 1 1 1 1 1 1 1 1 1 1 1 1 1 1 1 1 1 1 1 1 1 1 1 1 1 1 1 1 1 1 1 1 1 1 1 1 1 1 1 1 1 1 1 1 1 1 1 1 1 1 1 1 1 1 1 1 1 1 1 1 1 1 1 1 1 1 1 1 1 1 1 1 1 1 1 1 1 1 1 1 1 1 1 1 1 1 1 1 1 1 1 1 1 1 1 1 1 1 1 1 1 1 1 1 1 1 1 1 1 1 1 1 1 1 1 1 1 1 1 1 1 1 1 1 1 1 1 1 1 1 1 1 1 1 1 1 1 1 1 1 1 1 1 1 1 1 1 1 1 ];
w=[ 4 3 1 5 3 1 1 4 1 4 3 1 5 3 2 3 2 4 3 1 1 5 4 1 2 3 5 3 1 2 5 1 5 4 3 4 4 4 4 4 5 2 1 2 1 3 2 4 5 4 2 1 4 5 4 3 5 2 5 5 3 1 4 4 1 4 4 5 4 2 4 2 5 5 1 4 2 4 1 4 4 5 2 4 3 4 4 5 3 1 4 3 4 2 3 2 4 2 2 2 1 4 4 2 4 3 3 2 4 4 5 2 3 2 4 5 5 5 1 4 3 4 5 4 5 1 3 2 5 2 4 3 1 3 4 3 1 1 5 2 5 3 1 2 4 3 1 2 1 2 2 5 3 5 1 1 4 2 3 1 3 2 5 2 3 5 4 3 1 5 5 1 2 2 3 2 3 5 3 3 1 3 3 2 3 2 4 5 2 5 2 2 5 4 1 4 5 5 5 5 4 5 2 1 2 1 5 5 3 1 3 1 4 5 1 4 3 3 5 3 3 4 5 1 1 4 4 3 4 1 3 2 1 3 2 4 3 4 2 5 5 2 3 2 2 2 2 4 5 5 5 2 5 4 1 3 1 2 5 4 2 1 4 5 5 5 1 4 2 4 4 1 2 4 5 3 2 3 4 2 2 5 4 3 4 3 3 5 4 1 4 3 3 5 4 3 2 2 4 2 5 5 3 3 5 2 4 1 4 3 3 5 4 5 3 4 1 5 5 5 5 5 4 3 2 2 3 3 5 1 2 1 5 4 4 4 2 2 4 2 2 4 5 3 3 5 3 2 1 3 1 3 4 5 1 1 2 2 3 2 1 2 5 5 2 5 4 1 4 1 1 5 5 4 5 5 1 1 2 5 4 5 3 1 3 1 1 4 4 4 3 5 5 3 5 5 3 4 4 5 1 2 5 4 1 1 1 1 5 4 5 1 3 5 3 3 2 3 1 5 4 4 5 4 4 3 5 2 1 4 1 5 1 1 1 5 4 3 1 5 4 4 1 3 3 1 4 3 3 4 1 2 1 2 4 1 1 1 3 4 5 5 1 1 5 2 2 5 4 4 4 4 4 3 4 3 5 2 2 2 5 2 1 3 4 5 3 4 1 1 5 3 1 4 5 5 1 2 3 3 5 3 2 5 1 4 2 5 2 5 2 4 2 3 5 2 3 4 1 4 5 2 4 2 2 2 2 5 5 5 5 1 5 1 5 1 1 2 1 5 1 3 1 5 2 3 2 2 3 3 4 3 1 2 2 1 5 4 4 5 3 4 2 5 4 1 4 2 2 5 5 3 2 3 2 1 3 5 3 2 1 4 2 3 5 4 1 4 2 2 4 5 2 4 2 2 5 2 3 1 5 5 3 2 4 2 4 1 2 1 3 5 3 1 2 4 3 2 2 3 4 4 5 4 2 4 3 5 5 5 ];
f=[ 1 1 1 1 1 1 1 1 1 1 1 1 1 1 1 1 1 1 1 1 1 1 1 1 1 1 1 1 1 1 1 1 1 1 1 1 1 1 1 1 1 1 1 1 1 1 1 1 1 1 1 1 1 1 1 1 1 1 1 1 1 1 1 1 1 1 1 1 1 1 1 1 1 1 1 1 1 1 1 1 1 1 1 1 1 1 1 1 1 1 1 1 1 1 1 1 1 1 1 1 1 1 1 1 1 1 1 1 1 1 1 1 1 1 1 1 1 1 1 1 1 1 1 1 1 1 1 1 1 1 1 1 1 1 1 1 1 1 1 1 1 1 1 1 1 1 1 1 1 1 1 1 1 1 1 1 1 1 1 1 1 1 1 1 1 1 1 1 1 1 1 1 1 1 1 1 1 1 1 1 1 1 1 1 1 1 1 1 1 1 1 1 1 1 1 1 1 1 1 1 1 1 1 1 1 1 1 1 1 1 2 2 2 2 2 2 2 2 2 2 2 2 2 2 2 2 2 2 2 2 2 2 2 2 2 2 2 2 2 2 2 2 2 2 2 2 2 2 2 2 2 2 2 2 2 2 2 2 2 2 2 2 2 2 2 2 2 2 2 2 2 2 2 2 2 2 2 2 2 2 2 2 2 2 2 2 2 2 2 2 2 2 2 2 2 2 2 2 2 2 2 2 2 2 2 2 2 2 2 2 2 2 2 2 2 2 2 2 2 2 2 2 2 2 2 2 2 2 2 2 2 2 2 2 2 2 2 2 2 2 2 2 2 2 2 2 2 2 2 2 2 2 2 2 2 2 2 2 2 2 2 2 2 2 2 2 2 2 2 2 2 2 2 2 2 2 2 2 2 2 2 2 2 2 2 2 2 2 2 2 2 2 2 2 2 2 2 2 2 2 2 2 2 2 2 2 2 2 2 2 2 2 2 2 2 2 2 2 2 2 3 3 3 3 3 3 3 3 3 3 3 3 3 3 3 3 3 3 3 3 3 3 3 3 3 3 3 3 3 3 3 3 3 3 3 3 3 3 3 3 3 3 3 3 3 3 3 3 3 3 3 3 3 3 3 3 3 3 3 3 3 3 3 3 3 3 3 3 3 3 3 3 3 3 3 3 3 3 3 3 3 3 3 3 3 3 3 3 3 3 3 3 3 3 3 3 3 3 3 3 3 3 3 3 3 3 3 3 3 3 3 3 3 3 3 3 3 3 3 3 3 3 3 3 3 3 3 3 3 3 3 3 3 3 3 3 3 3 3 3 3 3 3 3 3 3 3 3 3 3 3 3 3 3 3 3 3 3 3 3 3 3 3 3 3 3 3 3 3 3 3 3 3 3 3 3 3 3 3 3 3 3 3 3 3 3 3 3 3 3 3 3 3 3 3 3 3 3 3 3 3 3 3 3 3 3 3 3 3 3 ];

e1=[ 10 10 10 10 10 10 10 10 10 10 10 10 10 10 10 10 10 10 10 10 10 10 10 10 10 10 10 10 10 10 10 10 10 10 10 10 10 10 10 10 10 10 10 10 10 10 10 10 10 10 10 10 10 10 10 10 10 10 10 10 10 10 10 10 10 10 10 10 10 10 10 10 10 10 10 10 10 10 10 10 10 10 10 10 10 10 10 10 10 10 8 8 8 8 8 8 8 8 8 8 8 8 8 8 8 8 8 8 8 8 8 8 8 8 8 8 8 8 8 8 8 8 8 8 8 8 8 8 8 8 8 8 8 8 8 8 8 8 8 8 8 8 8 8 8 8 8 8 8 8 8 8 8 8 8 8 8 8 8 8 8 8 8 8 8 8 8 8 8 8 8 8 8 8 8 8 8 8 8 8 ];
e2=[ 10 10 10 10 10 10 10 10 10 10 10 10 10 10 10 10 10 10 10 10 10 10 10 10 10 10 10 10 10 10 10 10 10 10 10 10 10 10 10 10 10 10 10 10 10 10 10 10 10 10 10 10 10 10 10 10 10 10 10 10 9 9 9 9 9 9 9 9 9 9 9 9 9 9 9 9 9 9 9 9 9 9 9 9 9 9 9 9 9 9 8 8 8 8 8 8 8 8 8 8 8 8 8 8 8 8 8 8 8 8 8 8 8 8 8 8 8 8 8 8 8 8 8 8 8 8 8 8 8 8 8 8 8 8 8 8 8 8 8 8 8 8 8 8 8 8 8 8 8 8 9 9 9 9 9 9 9 9 9 9 9 9 9 9 9 9 9 9 9 9 9 9 9 9 9 9 9 9 9 9 ];